Route #1: 26 7 35 8 52 34 46
Route #2: 27 13 54 19 59 14
Route #3: 2 28 62 1 63 33
Route #4: 21 61 22 64 42 41 43
Route #5: 23 56 49 24 18 55 25 31
Route #6: 12 40 44 3 16 51 6
Route #7: 17 32 50 9 39
Route #8: 58 10 38 11 53
Route #9: 30 48 47 36 60 20 37
Route #10: 57 15 5 29 45 4
Cost 839